p edge 81 941
e 1 4
e 1 10
e 1 17
e 1 21
e 1 25
e 1 27
e 1 28
e 1 29
e 1 32
e 1 36
e 1 38
e 1 49
e 1 50
e 1 55
e 1 56
e 1 58
e 1 70
e 1 71
e 1 79
e 2 4
e 2 11
e 2 15
e 2 19
e 2 20
e 2 21
e 2 29
e 2 31
e 2 35
e 2 36
e 2 40
e 2 41
e 2 42
e 2 43
e 2 45
e 2 48
e 2 52
e 2 55
e 2 59
e 2 61
e 2 64
e 2 71
e 2 72
e 2 76
e 2 81
e 3 4
e 3 5
e 3 19
e 3 20
e 3 27
e 3 28
e 3 29
e 3 36
e 3 39
e 3 46
e 3 47
e 3 51
e 3 53
e 3 60
e 3 64
e 3 67
e 3 68
e 3 71
e 3 74
e 4 6
e 4 8
e 4 14
e 4 25
e 4 26
e 4 34
e 4 40
e 4 44
e 4 46
e 4 48
e 4 49
e 4 53
e 4 56
e 4 59
e 4 61
e 4 63
e 4 66
e 4 71
e 4 72
e 4 79
e 5 6
e 5 9
e 5 11
e 5 12
e 5 13
e 5 18
e 5 20
e 5 25
e 5 26
e 5 28
e 5 30
e 5 34
e 5 35
e 5 39
e 5 41
e 5 48
e 5 50
e 5 52
e 5 54
e 5 56
e 5 57
e 5 61
e 5 66
e 5 67
e 5 74
e 5 78
e 5 80
e 6 11
e 6 13
e 6 16
e 6 17
e 6 20
e 6 47
e 6 49
e 6 51
e 6 63
e 6 68
e 6 69
e 6 78
e 6 79
e 7 8
e 7 11
e 7 13
e 7 15
e 7 24
e 7 31
e 7 32
e 7 38
e 7 41
e 7 43
e 7 45
e 7 46
e 7 51
e 7 52
e 7 55
e 7 58
e 7 61
e 7 63
e 7 65
e 7 73
e 7 75
e 7 79
e 8 9
e 8 10
e 8 17
e 8 18
e 8 19
e 8 20
e 8 27
e 8 29
e 8 32
e 8 34
e 8 37
e 8 41
e 8 44
e 8 52
e 8 55
e 8 56
e 8 59
e 8 63
e 8 66
e 8 75
e 8 76
e 8 77
e 8 78
e 8 79
e 9 10
e 9 11
e 9 15
e 9 20
e 9 29
e 9 30
e 9 31
e 9 32
e 9 34
e 9 41
e 9 42
e 9 43
e 9 47
e 9 51
e 9 53
e 9 57
e 9 59
e 9 60
e 9 62
e 9 63
e 9 67
e 9 71
e 9 72
e 9 73
e 9 78
e 10 12
e 10 17
e 10 18
e 10 19
e 10 21
e 10 24
e 10 31
e 10 33
e 10 36
e 10 40
e 10 46
e 10 49
e 10 53
e 10 57
e 10 61
e 10 70
e 10 71
e 10 72
e 10 73
e 11 20
e 11 27
e 11 30
e 11 38
e 11 42
e 11 48
e 11 52
e 11 54
e 11 55
e 11 56
e 11 58
e 11 62
e 11 64
e 11 67
e 11 75
e 11 80
e 12 17
e 12 19
e 12 22
e 12 24
e 12 25
e 12 30
e 12 32
e 12 33
e 12 41
e 12 42
e 12 45
e 12 47
e 12 48
e 12 50
e 12 54
e 12 61
e 12 62
e 12 67
e 12 69
e 12 73
e 12 75
e 12 79
e 12 80
e 13 15
e 13 27
e 13 32
e 13 36
e 13 39
e 13 40
e 13 42
e 13 43
e 13 50
e 13 51
e 13 56
e 13 71
e 13 77
e 13 78
e 13 79
e 14 18
e 14 19
e 14 23
e 14 24
e 14 25
e 14 26
e 14 27
e 14 28
e 14 31
e 14 32
e 14 33
e 14 35
e 14 39
e 14 41
e 14 43
e 14 44
e 14 45
e 14 50
e 14 54
e 14 56
e 14 57
e 14 58
e 14 61
e 14 64
e 14 66
e 14 76
e 14 81
e 15 17
e 15 18
e 15 23
e 15 25
e 15 27
e 15 32
e 15 38
e 15 52
e 15 56
e 15 58
e 15 67
e 15 69
e 15 70
e 15 79
e 16 25
e 16 29
e 16 31
e 16 32
e 16 33
e 16 35
e 16 36
e 16 40
e 16 41
e 16 45
e 16 53
e 16 60
e 16 61
e 16 64
e 16 66
e 16 68
e 16 70
e 16 72
e 16 76
e 16 80
e 17 24
e 17 26
e 17 29
e 17 36
e 17 37
e 17 39
e 17 43
e 17 44
e 17 48
e 17 50
e 17 57
e 17 60
e 17 61
e 17 63
e 17 70
e 17 71
e 17 72
e 17 78
e 18 21
e 18 23
e 18 25
e 18 26
e 18 28
e 18 30
e 18 33
e 18 38
e 18 40
e 18 42
e 18 43
e 18 47
e 18 48
e 18 51
e 18 56
e 18 58
e 18 61
e 18 65
e 18 67
e 18 74
e 18 78
e 18 80
e 18 81
e 19 23
e 19 27
e 19 29
e 19 34
e 19 39
e 19 48
e 19 49
e 19 55
e 19 57
e 19 60
e 19 61
e 19 63
e 19 67
e 19 71
e 19 74
e 19 76
e 19 77
e 20 23
e 20 24
e 20 33
e 20 35
e 20 39
e 20 42
e 20 43
e 20 48
e 20 55
e 20 57
e 20 58
e 20 62
e 20 63
e 20 64
e 20 70
e 20 71
e 20 72
e 20 74
e 20 77
e 20 78
e 20 79
e 21 22
e 21 23
e 21 24
e 21 25
e 21 30
e 21 31
e 21 32
e 21 35
e 21 38
e 21 41
e 21 43
e 21 46
e 21 48
e 21 49
e 21 51
e 21 54
e 21 56
e 21 59
e 21 60
e 21 61
e 21 65
e 21 67
e 21 69
e 21 70
e 21 74
e 21 76
e 21 79
e 21 80
e 21 81
e 22 24
e 22 26
e 22 32
e 22 33
e 22 40
e 22 42
e 22 44
e 22 47
e 22 48
e 22 53
e 22 55
e 22 58
e 22 63
e 22 66
e 22 68
e 22 70
e 22 74
e 22 81
e 23 24
e 23 28
e 23 32
e 23 34
e 23 39
e 23 42
e 23 44
e 23 46
e 23 48
e 23 49
e 23 52
e 23 53
e 23 55
e 23 56
e 23 58
e 23 59
e 23 61
e 23 65
e 23 66
e 23 67
e 23 70
e 23 75
e 24 25
e 24 28
e 24 29
e 24 30
e 24 32
e 24 38
e 24 39
e 24 44
e 24 50
e 24 52
e 24 58
e 24 59
e 24 60
e 24 61
e 24 71
e 24 73
e 24 74
e 24 78
e 25 26
e 25 27
e 25 28
e 25 32
e 25 34
e 25 50
e 25 53
e 25 60
e 25 61
e 25 63
e 25 64
e 25 78
e 25 81
e 26 28
e 26 29
e 26 31
e 26 33
e 26 44
e 26 53
e 26 55
e 26 57
e 26 61
e 26 63
e 26 67
e 26 71
e 26 72
e 26 75
e 26 77
e 26 78
e 26 80
e 26 81
e 27 28
e 27 30
e 27 35
e 27 36
e 27 46
e 27 49
e 27 50
e 27 53
e 27 55
e 27 56
e 27 57
e 27 60
e 27 61
e 27 72
e 27 74
e 27 76
e 28 30
e 28 32
e 28 35
e 28 36
e 28 44
e 28 50
e 28 52
e 28 63
e 28 67
e 28 68
e 28 71
e 28 79
e 29 31
e 29 36
e 29 37
e 29 40
e 29 47
e 29 53
e 29 56
e 29 60
e 29 61
e 29 64
e 29 67
e 29 68
e 29 78
e 30 32
e 30 33
e 30 34
e 30 36
e 30 43
e 30 44
e 30 46
e 30 50
e 30 52
e 30 62
e 30 63
e 30 72
e 30 73
e 31 34
e 31 38
e 31 42
e 31 49
e 31 52
e 31 56
e 31 58
e 31 63
e 31 66
e 31 69
e 31 71
e 31 74
e 31 76
e 31 78
e 31 80
e 31 81
e 32 33
e 32 37
e 32 38
e 32 41
e 32 46
e 32 47
e 32 50
e 32 55
e 32 58
e 32 60
e 32 62
e 32 71
e 32 74
e 32 76
e 32 77
e 33 35
e 33 39
e 33 41
e 33 42
e 33 44
e 33 51
e 33 55
e 33 57
e 33 59
e 33 60
e 33 63
e 33 67
e 33 68
e 33 69
e 33 76
e 34 39
e 34 45
e 34 50
e 34 55
e 34 56
e 34 62
e 34 69
e 34 74
e 34 77
e 34 78
e 35 37
e 35 40
e 35 44
e 35 45
e 35 50
e 35 52
e 35 55
e 35 56
e 35 58
e 35 59
e 35 63
e 35 65
e 35 67
e 35 68
e 35 71
e 35 78
e 35 79
e 35 80
e 36 37
e 36 39
e 36 44
e 36 45
e 36 50
e 36 58
e 36 63
e 36 64
e 36 67
e 36 74
e 36 75
e 36 78
e 36 79
e 37 45
e 37 46
e 37 48
e 37 54
e 37 58
e 37 60
e 37 61
e 37 74
e 37 76
e 38 45
e 38 50
e 38 53
e 38 58
e 38 60
e 38 62
e 38 67
e 38 68
e 38 72
e 38 78
e 39 44
e 39 48
e 39 52
e 39 57
e 39 58
e 39 59
e 39 61
e 39 63
e 39 64
e 39 71
e 39 72
e 39 78
e 40 53
e 40 57
e 40 61
e 40 73
e 40 75
e 40 78
e 40 80
e 41 44
e 41 45
e 41 50
e 41 54
e 41 61
e 41 63
e 41 75
e 42 43
e 42 45
e 42 49
e 42 54
e 42 66
e 42 68
e 42 69
e 42 72
e 42 73
e 42 76
e 43 44
e 43 45
e 43 50
e 43 51
e 43 54
e 43 56
e 43 57
e 43 62
e 43 63
e 43 64
e 43 71
e 43 72
e 43 75
e 43 79
e 44 47
e 44 52
e 44 53
e 44 66
e 44 73
e 44 79
e 45 49
e 45 50
e 45 51
e 45 52
e 45 54
e 45 57
e 45 59
e 45 60
e 45 63
e 45 64
e 45 65
e 45 72
e 45 78
e 45 81
e 46 49
e 46 50
e 46 53
e 46 55
e 46 58
e 46 62
e 46 68
e 46 70
e 46 71
e 46 78
e 46 79
e 46 81
e 47 50
e 47 51
e 47 58
e 47 59
e 47 72
e 47 73
e 47 76
e 47 77
e 47 81
e 48 49
e 48 51
e 48 53
e 48 59
e 48 62
e 48 64
e 48 65
e 48 74
e 48 76
e 49 50
e 49 55
e 49 59
e 49 64
e 49 65
e 49 67
e 49 73
e 49 77
e 50 52
e 50 59
e 50 65
e 50 66
e 50 68
e 50 71
e 50 72
e 50 77
e 51 55
e 51 57
e 51 59
e 51 60
e 51 63
e 51 65
e 51 67
e 51 69
e 51 72
e 51 73
e 51 74
e 51 75
e 51 77
e 51 80
e 52 53
e 52 69
e 52 71
e 52 74
e 52 75
e 52 79
e 52 80
e 52 81
e 53 55
e 53 57
e 53 60
e 53 68
e 53 69
e 53 70
e 53 72
e 53 73
e 53 76
e 53 77
e 53 79
e 53 81
e 54 57
e 54 66
e 54 67
e 54 72
e 54 74
e 55 56
e 55 58
e 55 63
e 55 68
e 55 69
e 55 70
e 55 79
e 56 60
e 56 62
e 56 65
e 56 69
e 56 70
e 56 71
e 56 74
e 56 75
e 56 76
e 56 79
e 56 80
e 57 63
e 57 74
e 57 75
e 57 77
e 58 63
e 58 65
e 58 70
e 58 71
e 58 78
e 58 79
e 59 66
e 59 67
e 59 69
e 59 76
e 59 78
e 60 65
e 60 68
e 60 69
e 60 72
e 60 75
e 60 76
e 60 77
e 61 62
e 61 67
e 61 74
e 61 78
e 61 81
e 62 72
e 62 76
e 62 81
e 63 66
e 63 68
e 63 74
e 63 76
e 63 78
e 63 79
e 63 81
e 64 66
e 64 72
e 64 74
e 64 75
e 64 77
e 65 70
e 65 74
e 65 77
e 66 69
e 66 70
e 66 74
e 66 80
e 67 70
e 67 72
e 67 73
e 67 77
e 67 79
e 68 69
e 68 72
e 68 73
e 68 74
e 68 75
e 68 76
e 69 70
e 69 75
e 69 78
e 70 73
e 70 78
e 71 73
e 71 75
e 71 78
e 72 74
e 72 76
e 72 78
e 72 80
e 73 74
e 73 75
e 74 75
e 74 79
e 75 77
e 75 81
e 76 77
e 76 81
e 77 78
e 78 81
e 79 80
